c 3 - XORSAT
p cnf 50 200
36 49 50 0
-36 -49 50 0
-36 49 -50 0
36 -49 -50 0
-4 -42 -44 0
-4 42 44 0
4 -42 44 0
4 42 -44 0
3 10 11 0
-3 -10 11 0
-3 10 -11 0
3 -10 -11 0
-22 -30 -31 0
-22 30 31 0
22 -30 31 0
22 30 -31 0
8 17 47 0
-8 -17 47 0
-8 17 -47 0
8 -17 -47 0
12 17 39 0
-12 -17 39 0
-12 17 -39 0
12 -17 -39 0
-22 -35 -44 0
-22 35 44 0
22 -35 44 0
22 35 -44 0
-1 -25 -41 0
-1 25 41 0
1 -25 41 0
1 25 -41 0
-30 -45 -7 0
-30 45 7 0
30 -45 7 0
30 45 -7 0
-35 -43 -49 0
-35 43 49 0
35 -43 49 0
35 43 -49 0
7 24 36 0
-7 -24 36 0
-7 24 -36 0
7 -24 -36 0
8 12 20 0
-8 -12 20 0
-8 12 -20 0
8 -12 -20 0
2 5 45 0
-2 -5 45 0
-2 5 -45 0
2 -5 -45 0
-6 -19 -29 0
-6 19 29 0
6 -19 29 0
6 19 -29 0
24 31 33 0
-24 -31 33 0
-24 31 -33 0
24 -31 -33 0
37 40 42 0
-37 -40 42 0
-37 40 -42 0
37 -40 -42 0
-23 -28 -29 0
-23 28 29 0
23 -28 29 0
23 28 -29 0
15 31 47 0
-15 -31 47 0
-15 31 -47 0
15 -31 -47 0
-15 -26 -30 0
-15 26 30 0
15 -26 30 0
15 26 -30 0
21 32 33 0
-21 -32 33 0
-21 32 -33 0
21 -32 -33 0
-9 -41 -46 0
-9 41 46 0
9 -41 46 0
9 41 -46 0
1 4 37 0
-1 -4 37 0
-1 4 -37 0
1 -4 -37 0
6 23 48 0
-6 -23 48 0
-6 23 -48 0
6 -23 -48 0
-9 -12 -38 0
-9 12 38 0
9 -12 38 0
9 12 -38 0
-17 -21 -23 0
-17 21 23 0
17 -21 23 0
17 21 -23 0
8 14 16 0
-8 -14 16 0
-8 14 -16 0
8 -14 -16 0
6 10 11 0
-6 -10 11 0
-6 10 -11 0
6 -10 -11 0
-27 -48 -49 0
-27 48 49 0
27 -48 49 0
27 48 -49 0
18 24 34 0
-18 -24 34 0
-18 24 -34 0
18 -24 -34 0
-7 -14 -21 0
-7 14 21 0
7 -14 21 0
7 14 -21 0
14 32 43 0
-14 -32 43 0
-14 32 -43 0
14 -32 -43 0
-4 -10 -19 0
-4 10 19 0
4 -10 19 0
4 10 -19 0
36 40 48 0
-36 -40 48 0
-36 40 -48 0
36 -40 -48 0
2 20 28 0
-2 -20 28 0
-2 20 -28 0
2 -20 -28 0
22 34 38 0
-22 -34 38 0
-22 34 -38 0
22 -34 -38 0
-20 -43 -46 0
-20 43 46 0
20 -43 46 0
20 43 -46 0
11 13 26 0
-11 -13 26 0
-11 13 -26 0
11 -13 -26 0
16 38 33 0
-16 -38 33 0
-16 38 -33 0
16 -38 -33 0
5 47 50 0
-5 -47 50 0
-5 47 -50 0
5 -47 -50 0
3 44 50 0
-3 -44 50 0
-3 44 -50 0
3 -44 -50 0
-5 -13 -34 0
-5 13 34 0
5 -13 34 0
5 13 -34 0
2 9 28 0
-2 -9 28 0
-2 9 -28 0
2 -9 -28 0
-18 -27 -35 0
-18 27 35 0
18 -27 35 0
18 27 -35 0
29 32 41 0
-29 -32 41 0
-29 32 -41 0
29 -32 -41 0
-25 -39 -40 0
-25 39 40 0
25 -39 40 0
25 39 -40 0
-19 -27 -46 0
-19 27 46 0
19 -27 46 0
19 27 -46 0
13 42 45 0
-13 -42 45 0
-13 42 -45 0
13 -42 -45 0
1 16 18 0
-1 -16 18 0
-1 16 -18 0
1 -16 -18 0
37 25 39 0
-37 -25 39 0
-37 25 -39 0
37 -25 -39 0
-3 -15 -26 0
-3 15 26 0
3 -15 26 0
3 15 -26 0
